(assert (forall ((pkt_0_4_6_0  Int  )(state_group_0_state_0_5_7_0  Int  )(state_group_0_state_1_6_8_0  Int  )) (let ((_n0 state_group_0_state_0_5_7_0 ))
(let ((_n1 2 ))
(let ((_n2 (ite (=  _n0  1)  _n1   _n0  ) ))
(let ((_n3 state_group_0_state_1_6_8_0 ))
(let ((_n4 false ))
(let ((_n5 (ite (=  _n0  1)  (ite  _n4  1 0)   _n3  ) ))
(let ((_n6 3 ))
(let ((_n7 (ite (=  _n5  999)  _n6   _n2  ) ))
(let ((_n8 (ite (=  _n2  2)  _n7   _n2  ) ))
(let ((_n9 true ))
(let ((_n10 (=   _n0   (ite  _n9  1 0) ) ))
(let ((_n11 (not  _n10 ) ))
(let ((_n12 (ite (=  _n0  1)  (ite  _n4  1 0)   _n0  ) ))
(let ((_n13 (=   _n12   _n1 ) ))
(let ((_n14 (not  _n13 ) ))
(let ((_n15 (and   _n11   _n14 ) ))
(let ((_n16 (or   _n15   _n10 ) ))
(let ((_n17 (not  _n16 ) ))
(let ((_n18 (+   (ite  _n17  1 0)   (ite  _n17  1 0) ) ))
(let ((_n19 (ite  _n16   (ite  _n4  1 0)   _n18  ) ))
(let ((_n20 (ite  _n16   _n0   (ite  _n4  1 0)  ) ))
(let ((_n21 (+   _n20   _n19 ) ))
(let ((_n22 (ite (=  (ite  _n15  1 0)  1)  _n0   _n21  ) ))
(let ((_n23 (ite (=  (ite  _n11  1 0)  1)  _n22   _n0  ) ))
(let ((_n24 pkt_0_4_6_0 ))
(let ((_n25 (ite (=  _n0  1)  _n24   (ite  _n4  1 0)  ) ))
(let ((_n26 (-  _n25 )))
(let ((_n27 (=   _n26   (ite  _n4  1 0) ) ))
(let ((_n28 (not  _n27 ) ))
(let ((_n29 (and   _n10   _n28 ) ))
(let ((_n30 (or   _n29   _n11 ) ))
(let ((_n31 (ite  _n30   (ite  _n4  1 0)   _n24  ) ))
(let ((_n32 (not  _n30 ) ))
(let ((_n33 (+   (ite  _n32  1 0)   _n31 ) ))
(let ((_n34 (ite  _n30   (ite  _n4  1 0)   _n33  ) ))
(let ((_n35 (+   _n0   _n34 ) ))
(let ((_n36 (and   _n29   _n10 ) ))
(let ((_n37 (+   _n0   (ite  _n36  1 0) ) ))
(let ((_n38 (ite (=  (ite  _n29  1 0)  1)  _n37   _n35  ) ))
(let ((_n39 (ite (=  (ite  _n10  1 0)  1)  _n38   _n23  ) ))
(let ((_n40 (=   _n39   _n8 ) ))
(let ((_n42 (+   _n5   (ite  _n9  1 0) ) ))
(let ((_n43 (ite (=  _n2  2)  _n42   _n5  ) ))
(let ((_n44 (+   _n3   (ite  _n17  1 0) ) ))
(let ((_n45 (ite (=  (ite  _n15  1 0)  1)  _n3   _n44  ) ))
(let ((_n46 (ite (=  (ite  _n11  1 0)  1)  _n45   _n3  ) ))
(let ((_n47 (ite  _n30   _n3   (ite  _n4  1 0)  ) ))
(let ((_n48 (+   _n47   (ite  _n32  1 0) ) ))
(let ((_n49 (ite  _n36   _n6   (ite  _n4  1 0)  ) ))
(let ((_n50 (-  _n49 )))
(let ((_n51 4 ))
(let ((_n52 (ite  _n36   _n51   (ite  _n4  1 0)  ) ))
(let ((_n53 (+   _n52   _n50 ) ))
(let ((_n54 (ite  _n36   _n53   (ite  _n4  1 0)  ) ))
(let ((_n55 (ite  _n36   (ite  _n4  1 0)   _n3  ) ))
(let ((_n56 (+   _n55   _n54 ) ))
(let ((_n57 (ite (=  (ite  _n29  1 0)  1)  _n56   _n48  ) ))
(let ((_n58 (ite (=  (ite  _n10  1 0)  1)  _n57   _n46  ) ))
(let ((_n59 (=   _n58   _n43 ) ))
(implies  (and (and (>= state_group_0_state_1_6_8_0 0) (< state_group_0_state_1_6_8_0 1024 ))  (and (and (>= state_group_0_state_0_5_7_0 0) (< state_group_0_state_0_5_7_0 1024 ))  (and (>= pkt_0_4_6_0 0) (< pkt_0_4_6_0 1024 )) ) )   (and  _n40  _n59 )  ))))))))))))))))))))))))))))))))))))))))))))))))))))))))))))))
(check-sat)
(get-model)
(exit)